984.7 0
0 55 97 99 91 28 63 3 13 77 80 73 69 45 62 90 87 95 51 66 34 79 78 33 42 15 61 65 59 52 47 5 57 76 16 9 86 48 41 60 67 88 96 53 85 7 6 8 93 89 37 94 50 58 10 68 26 84 4 1 18 2 75 14 32 72 11 27 36 70 12 82 92 64 49 71 98 54 29 35 23 20 81 56 25 83 21 46 31 74 38 39 19 40 22 24 43 30 44 17 
